120
150
90
58
65
20
53
92
35
71
62
21
54
36
33
98
90
64
59
56
94
28
85
32
31
75
56
82
54
59
63
24
29
93
55
61
55
22
97
22
68
38
63
44
63
93
79
60
82
42
100
55
45
70
70
79
36
99
39
29
37
33
33
83
21
29
30
42
91
29
77
97
32
75
55
27
99
40
43
81
42
25
49
29
86
23
29
55
64
52
94
42
100
30
59
60
58
42
99
44
34
43
93
27
32
25
83
20
96
20
58
56
45
32
73
40
87
95
87
71
69
74
